ssat_solver_solve2
#level: 2
Abc_NtkNodeNum(s->pNtk): 1028  , BDD limit: 10240
level 1: 10 element
Exist
existence_eliminate_scope
Abc_NtkIsBddLogic(pNtk): 0
Abc_NtkIsStrash(pNtk): 1
existence_eliminate_scope_aig
exist by BDD failed
Abc_NtkNodeNum(s->pNtk): 15641  , BDD limit: 18769
Build BDD success
level 0: 10 element
Random
c ssat solving in ABC
#var: 20
s SATISFIABLE
  > Upper bound = 9.980469e-01
  > Lower bound = 9.980469e-01
FINISHED CPU 0.12 MEM 61892 MAXMEM 61892 STALE 0 MAXMEM_RSS 18516
<time name="ALL">210</time>
real 0.26
user 0.26
sys 0.13
